NAME: instance_11
TYPE: TSP
COMMENT: 11-city problem
DIMENSION: 11
EDGE_WEIGHT_TYPE: EUC_2D
NODE_COORD_SECTION
0 512 658
1 93 684
2 755 421
3 293 962
4 845 107
5 834 863
6 805 977
7 58 268
8 575 876
9 964 17
10 94 500
EOF
